p cnf 289 1
289 0
w 1 0.586951
w 2 1 0.695288
w 2 -1 0.498667
w 3 2 0
w 3 -2 1
w 4 3 0.283611
w 4 -3 0.762261
w 5 4 0
w 5 -4 1
w 6 5 1
w 6 -5 0
w 7 6 0.238498
w 7 -6 0.162004
w 8 7 0.279047
w 8 -7 0.186216
w 9 8 0
w 9 -8 1
w 10 9 0.510378
w 10 -9 0.384387
w 11 10 0
w 11 -10 1
w 12 11 0
w 12 -11 1
w 13 12 0.870099
w 13 -12 0.744016
w 14 13 0
w 14 -13 1
w 15 14 1
w 15 -14 0
w 16 15 1
w 16 -15 0
w 17 16 0.383672
w 17 -16 0.518349
w 18 1 0
w 18 -1 1
w 19 18 2 0
w 19 18 -2 0
w 19 -18 2 0
w 19 -18 -2 1
w 20 19 3 0
w 20 19 -3 0
w 20 -19 3 1
w 20 -19 -3 0
w 21 20 4 0
w 21 20 -4 1
w 21 -20 4 1
w 21 -20 -4 0
w 22 21 5 1
w 22 21 -5 0
w 22 -21 5 1
w 22 -21 -5 0
w 23 22 6 0
w 23 22 -6 1
w 23 -22 6 1
w 23 -22 -6 0
w 24 23 7 0.201721
w 24 23 -7 0.614117
w 24 -23 7 0.421431
w 24 -23 -7 0.754008
w 25 24 8 0.335168
w 25 24 -8 0.160242
w 25 -24 8 0.140878
w 25 -24 -8 0.41091
w 26 25 9 1
w 26 25 -9 1
w 26 -25 9 0
w 26 -25 -9 1
w 27 26 10 0.627477
w 27 26 -10 0.202888
w 27 -26 10 0.55513
w 27 -26 -10 0.332116
w 28 27 11 1
w 28 27 -11 0
w 28 -27 11 0
w 28 -27 -11 1
w 29 28 12 1
w 29 28 -12 1
w 29 -28 12 0
w 29 -28 -12 0
w 30 29 13 0
w 30 29 -13 1
w 30 -29 13 1
w 30 -29 -13 0
w 31 30 14 0.419675
w 31 30 -14 0.873064
w 31 -30 14 0.919037
w 31 -30 -14 0.560553
w 32 31 15 0
w 32 31 -15 1
w 32 -31 15 1
w 32 -31 -15 0
w 33 32 16 0
w 33 32 -16 0
w 33 -32 16 0
w 33 -32 -16 1
w 34 33 17 0
w 34 33 -17 0
w 34 -33 17 0
w 34 -33 -17 1
w 35 18 1
w 35 -18 0
w 36 35 19 0.686484
w 36 35 -19 0.749725
w 36 -35 19 0.731549
w 36 -35 -19 0.733794
w 37 36 20 0.736336
w 37 36 -20 0.39522
w 37 -36 20 0.404084
w 37 -36 -20 0.495131
w 38 37 21 0.277148
w 38 37 -21 0.414168
w 38 -37 21 0.375448
w 38 -37 -21 0.561122
w 39 38 22 0.738556
w 39 38 -22 0.517963
w 39 -38 22 0.423514
w 39 -38 -22 0.912191
w 40 39 23 0
w 40 39 -23 1
w 40 -39 23 1
w 40 -39 -23 0
w 41 40 24 0.909093
w 41 40 -24 0.850021
w 41 -40 24 0.908614
w 41 -40 -24 0.644035
w 42 41 25 1
w 42 41 -25 0
w 42 -41 25 0
w 42 -41 -25 0
w 43 42 26 0
w 43 42 -26 0
w 43 -42 26 1
w 43 -42 -26 1
w 44 43 27 0.274428
w 44 43 -27 0.746786
w 44 -43 27 0.21428
w 44 -43 -27 0.649876
w 45 44 28 1
w 45 44 -28 0
w 45 -44 28 1
w 45 -44 -28 0
w 46 45 29 0
w 46 45 -29 0
w 46 -45 29 0
w 46 -45 -29 1
w 47 46 30 0
w 47 46 -30 1
w 47 -46 30 1
w 47 -46 -30 1
w 48 47 31 0
w 48 47 -31 1
w 48 -47 31 1
w 48 -47 -31 1
w 49 48 32 0.934267
w 49 48 -32 0.977902
w 49 -48 32 0.173825
w 49 -48 -32 0.3938
w 50 49 33 0
w 50 49 -33 1
w 50 -49 33 1
w 50 -49 -33 1
w 51 50 34 0
w 51 50 -34 0
w 51 -50 34 1
w 51 -50 -34 0
w 52 35 0
w 52 -35 1
w 53 52 36 1
w 53 52 -36 0
w 53 -52 36 1
w 53 -52 -36 0
w 54 53 37 1
w 54 53 -37 1
w 54 -53 37 0
w 54 -53 -37 0
w 55 54 38 1
w 55 54 -38 1
w 55 -54 38 0
w 55 -54 -38 1
w 56 55 39 0.989086
w 56 55 -39 0.956951
w 56 -55 39 0.14756
w 56 -55 -39 0.436626
w 57 56 40 0.815788
w 57 56 -40 0.630951
w 57 -56 40 0.119105
w 57 -56 -40 0.133892
w 58 57 41 1
w 58 57 -41 0
w 58 -57 41 1
w 58 -57 -41 0
w 59 58 42 0.989683
w 59 58 -42 0.605951
w 59 -58 42 0.444082
w 59 -58 -42 0.504387
w 60 59 43 1
w 60 59 -43 0
w 60 -59 43 0
w 60 -59 -43 0
w 61 60 44 0
w 61 60 -44 1
w 61 -60 44 0
w 61 -60 -44 1
w 62 61 45 0
w 62 61 -45 0
w 62 -61 45 1
w 62 -61 -45 0
w 63 62 46 0.400634
w 63 62 -46 0.280985
w 63 -62 46 0.913503
w 63 -62 -46 0.534526
w 64 63 47 0
w 64 63 -47 1
w 64 -63 47 0
w 64 -63 -47 0
w 65 64 48 1
w 65 64 -48 0
w 65 -64 48 1
w 65 -64 -48 0
w 66 65 49 1
w 66 65 -49 0
w 66 -65 49 0
w 66 -65 -49 1
w 67 66 50 0
w 67 66 -50 1
w 67 -66 50 0
w 67 -66 -50 0
w 68 67 51 1
w 68 67 -51 0
w 68 -67 51 0
w 68 -67 -51 0
w 69 52 0.158738
w 69 -52 0.254342
w 70 69 53 1
w 70 69 -53 1
w 70 -69 53 0
w 70 -69 -53 1
w 71 70 54 0
w 71 70 -54 0
w 71 -70 54 0
w 71 -70 -54 1
w 72 71 55 1
w 72 71 -55 0
w 72 -71 55 1
w 72 -71 -55 0
w 73 72 56 0.11539
w 73 72 -56 0.785506
w 73 -72 56 0.0971273
w 73 -72 -56 0.887408
w 74 73 57 1
w 74 73 -57 0
w 74 -73 57 0
w 74 -73 -57 0
w 75 74 58 0
w 75 74 -58 1
w 75 -74 58 1
w 75 -74 -58 0
w 76 75 59 0
w 76 75 -59 1
w 76 -75 59 0
w 76 -75 -59 0
w 77 76 60 0.258304
w 77 76 -60 0.0793788
w 77 -76 60 0.157374
w 77 -76 -60 0.644664
w 78 77 61 0
w 78 77 -61 0
w 78 -77 61 0
w 78 -77 -61 1
w 79 78 62 0.941208
w 79 78 -62 0.797821
w 79 -78 62 0.0861745
w 79 -78 -62 0.828616
w 80 79 63 0
w 80 79 -63 1
w 80 -79 63 0
w 80 -79 -63 1
w 81 80 64 0.303148
w 81 80 -64 0.263714
w 81 -80 64 0.759142
w 81 -80 -64 0.70683
w 82 81 65 1
w 82 81 -65 0
w 82 -81 65 1
w 82 -81 -65 1
w 83 82 66 0.922114
w 83 82 -66 0.581555
w 83 -82 66 0.101691
w 83 -82 -66 0.566779
w 84 83 67 0.370999
w 84 83 -67 0.264425
w 84 -83 67 0.996436
w 84 -83 -67 0.196817
w 85 84 68 0
w 85 84 -68 1
w 85 -84 68 1
w 85 -84 -68 0
w 86 69 0.252159
w 86 -69 0.0865353
w 87 86 70 0
w 87 86 -70 1
w 87 -86 70 0
w 87 -86 -70 1
w 88 87 71 1
w 88 87 -71 0
w 88 -87 71 0
w 88 -87 -71 0
w 89 88 72 1
w 89 88 -72 1
w 89 -88 72 0
w 89 -88 -72 1
w 90 89 73 1
w 90 89 -73 1
w 90 -89 73 0
w 90 -89 -73 1
w 91 90 74 0
w 91 90 -74 0
w 91 -90 74 0
w 91 -90 -74 1
w 92 91 75 0.190976
w 92 91 -75 0.221584
w 92 -91 75 0.152609
w 92 -91 -75 0.277511
w 93 92 76 0.462971
w 93 92 -76 0.576488
w 93 -92 76 0.385457
w 93 -92 -76 0.0764817
w 94 93 77 1
w 94 93 -77 0
w 94 -93 77 0
w 94 -93 -77 0
w 95 94 78 1
w 95 94 -78 0
w 95 -94 78 0
w 95 -94 -78 1
w 96 95 79 0.0696959
w 96 95 -79 0.644375
w 96 -95 79 0.816533
w 96 -95 -79 0.618843
w 97 96 80 0.933451
w 97 96 -80 0.444731
w 97 -96 80 0.897528
w 97 -96 -80 0.188394
w 98 97 81 0
w 98 97 -81 0
w 98 -97 81 1
w 98 -97 -81 0
w 99 98 82 0
w 99 98 -82 0
w 99 -98 82 1
w 99 -98 -82 0
w 100 99 83 0
w 100 99 -83 0
w 100 -99 83 0
w 100 -99 -83 1
w 101 100 84 1
w 101 100 -84 0
w 101 -100 84 0
w 101 -100 -84 1
w 102 101 85 1
w 102 101 -85 0
w 102 -101 85 0
w 102 -101 -85 1
w 103 86 1
w 103 -86 0
w 104 103 87 0
w 104 103 -87 0
w 104 -103 87 1
w 104 -103 -87 1
w 105 104 88 1
w 105 104 -88 0
w 105 -104 88 0
w 105 -104 -88 0
w 106 105 89 0.179129
w 106 105 -89 0.684002
w 106 -105 89 0.258179
w 106 -105 -89 0.613193
w 107 106 90 0
w 107 106 -90 1
w 107 -106 90 1
w 107 -106 -90 1
w 108 107 91 1
w 108 107 -91 0
w 108 -107 91 1
w 108 -107 -91 1
w 109 108 92 1
w 109 108 -92 0
w 109 -108 92 0
w 109 -108 -92 1
w 110 109 93 1
w 110 109 -93 1
w 110 -109 93 1
w 110 -109 -93 0
w 111 110 94 1
w 111 110 -94 1
w 111 -110 94 0
w 111 -110 -94 1
w 112 111 95 0
w 112 111 -95 1
w 112 -111 95 1
w 112 -111 -95 0
w 113 112 96 0.893156
w 113 112 -96 0.108308
w 113 -112 96 0.91369
w 113 -112 -96 0.349953
w 114 113 97 0.542175
w 114 113 -97 0.0116355
w 114 -113 97 0.370572
w 114 -113 -97 0.748401
w 115 114 98 0.473851
w 115 114 -98 0.348901
w 115 -114 98 0.777588
w 115 -114 -98 0.884895
w 116 115 99 1
w 116 115 -99 0
w 116 -115 99 0
w 116 -115 -99 1
w 117 116 100 0
w 117 116 -100 0
w 117 -116 100 1
w 117 -116 -100 1
w 118 117 101 1
w 118 117 -101 1
w 118 -117 101 0
w 118 -117 -101 0
w 119 118 102 1
w 119 118 -102 0
w 119 -118 102 0
w 119 -118 -102 1
w 120 103 0
w 120 -103 1
w 121 120 104 0.264605
w 121 120 -104 0.3125
w 121 -120 104 0.527221
w 121 -120 -104 0.212505
w 122 121 105 0.876122
w 122 121 -105 0.990093
w 122 -121 105 0.671246
w 122 -121 -105 0.153246
w 123 122 106 0.172479
w 123 122 -106 0.874714
w 123 -122 106 0.732142
w 123 -122 -106 0.583849
w 124 123 107 0.561064
w 124 123 -107 0.565171
w 124 -123 107 0.665629
w 124 -123 -107 0.56418
w 125 124 108 0
w 125 124 -108 1
w 125 -124 108 1
w 125 -124 -108 0
w 126 125 109 1
w 126 125 -109 1
w 126 -125 109 1
w 126 -125 -109 0
w 127 126 110 1
w 127 126 -110 0
w 127 -126 110 0
w 127 -126 -110 0
w 128 127 111 1
w 128 127 -111 1
w 128 -127 111 1
w 128 -127 -111 0
w 129 128 112 0.28734
w 129 128 -112 0.970779
w 129 -128 112 0.690341
w 129 -128 -112 0.0194814
w 130 129 113 0
w 130 129 -113 0
w 130 -129 113 1
w 130 -129 -113 1
w 131 130 114 0
w 131 130 -114 0
w 131 -130 114 0
w 131 -130 -114 1
w 132 131 115 1
w 132 131 -115 1
w 132 -131 115 1
w 132 -131 -115 0
w 133 132 116 0
w 133 132 -116 1
w 133 -132 116 1
w 133 -132 -116 1
w 134 133 117 0
w 134 133 -117 1
w 134 -133 117 0
w 134 -133 -117 0
w 135 134 118 0
w 135 134 -118 1
w 135 -134 118 1
w 135 -134 -118 0
w 136 135 119 1
w 136 135 -119 0
w 136 -135 119 1
w 136 -135 -119 1
w 137 120 0.0325224
w 137 -120 0.209355
w 138 137 121 0
w 138 137 -121 1
w 138 -137 121 0
w 138 -137 -121 1
w 139 138 122 1
w 139 138 -122 1
w 139 -138 122 0
w 139 -138 -122 0
w 140 139 123 1
w 140 139 -123 0
w 140 -139 123 1
w 140 -139 -123 1
w 141 140 124 1
w 141 140 -124 0
w 141 -140 124 0
w 141 -140 -124 1
w 142 141 125 1
w 142 141 -125 1
w 142 -141 125 1
w 142 -141 -125 0
w 143 142 126 0
w 143 142 -126 0
w 143 -142 126 1
w 143 -142 -126 1
w 144 143 127 0.257262
w 144 143 -127 0.0653353
w 144 -143 127 0.349631
w 144 -143 -127 0.0557874
w 145 144 128 1
w 145 144 -128 0
w 145 -144 128 1
w 145 -144 -128 0
w 146 145 129 0
w 146 145 -129 0
w 146 -145 129 1
w 146 -145 -129 0
w 147 146 130 0
w 147 146 -130 1
w 147 -146 130 1
w 147 -146 -130 1
w 148 147 131 0.446786
w 148 147 -131 0.0642973
w 148 -147 131 0.392482
w 148 -147 -131 0.421994
w 149 148 132 1
w 149 148 -132 0
w 149 -148 132 1
w 149 -148 -132 0
w 150 149 133 0
w 150 149 -133 1
w 150 -149 133 1
w 150 -149 -133 1
w 151 150 134 0
w 151 150 -134 1
w 151 -150 134 0
w 151 -150 -134 0
w 152 151 135 0
w 152 151 -135 1
w 152 -151 135 0
w 152 -151 -135 0
w 153 152 136 0.827799
w 153 152 -136 0.799134
w 153 -152 136 0.886712
w 153 -152 -136 0.132922
w 154 137 1
w 154 -137 0
w 155 154 138 1
w 155 154 -138 0
w 155 -154 138 1
w 155 -154 -138 1
w 156 155 139 1
w 156 155 -139 0
w 156 -155 139 0
w 156 -155 -139 0
w 157 156 140 1
w 157 156 -140 1
w 157 -156 140 0
w 157 -156 -140 0
w 158 157 141 0
w 158 157 -141 0
w 158 -157 141 1
w 158 -157 -141 0
w 159 158 142 0
w 159 158 -142 1
w 159 -158 142 0
w 159 -158 -142 1
w 160 159 143 0.893549
w 160 159 -143 0.416739
w 160 -159 143 0.322263
w 160 -159 -143 0.676669
w 161 160 144 0.818919
w 161 160 -144 0.852271
w 161 -160 144 0.998148
w 161 -160 -144 0.00490713
w 162 161 145 0.375323
w 162 161 -145 0.537785
w 162 -161 145 0.50391
w 162 -161 -145 0.125068
w 163 162 146 1
w 163 162 -146 0
w 163 -162 146 0
w 163 -162 -146 0
w 164 163 147 0.767651
w 164 163 -147 0.862575
w 164 -163 147 0.911107
w 164 -163 -147 0.335604
w 165 164 148 0
w 165 164 -148 0
w 165 -164 148 1
w 165 -164 -148 1
w 166 165 149 0
w 166 165 -149 1
w 166 -165 149 0
w 166 -165 -149 0
w 167 166 150 1
w 167 166 -150 1
w 167 -166 150 0
w 167 -166 -150 1
w 168 167 151 0
w 168 167 -151 1
w 168 -167 151 0
w 168 -167 -151 1
w 169 168 152 1
w 169 168 -152 0
w 169 -168 152 1
w 169 -168 -152 1
w 170 169 153 1
w 170 169 -153 0
w 170 -169 153 0
w 170 -169 -153 1
w 171 154 0.347502
w 171 -154 0.291411
w 172 171 155 0
w 172 171 -155 0
w 172 -171 155 0
w 172 -171 -155 1
w 173 172 156 1
w 173 172 -156 1
w 173 -172 156 0
w 173 -172 -156 0
w 174 173 157 1
w 174 173 -157 1
w 174 -173 157 0
w 174 -173 -157 1
w 175 174 158 0
w 175 174 -158 0
w 175 -174 158 1
w 175 -174 -158 1
w 176 175 159 0
w 176 175 -159 1
w 176 -175 159 0
w 176 -175 -159 1
w 177 176 160 0.0432531
w 177 176 -160 0.0550115
w 177 -176 160 0.830796
w 177 -176 -160 0.390755
w 178 177 161 1
w 178 177 -161 0
w 178 -177 161 0
w 178 -177 -161 1
w 179 178 162 1
w 179 178 -162 0
w 179 -178 162 0
w 179 -178 -162 0
w 180 179 163 1
w 180 179 -163 1
w 180 -179 163 1
w 180 -179 -163 0
w 181 180 164 0.00146049
w 181 180 -164 0.220151
w 181 -180 164 0.760607
w 181 -180 -164 0.287157
w 182 181 165 0
w 182 181 -165 0
w 182 -181 165 0
w 182 -181 -165 1
w 183 182 166 0
w 183 182 -166 0
w 183 -182 166 1
w 183 -182 -166 0
w 184 183 167 0
w 184 183 -167 0
w 184 -183 167 1
w 184 -183 -167 1
w 185 184 168 1
w 185 184 -168 0
w 185 -184 168 1
w 185 -184 -168 0
w 186 185 169 0.213878
w 186 185 -169 0.880286
w 186 -185 169 0.429389
w 186 -185 -169 0.537468
w 187 186 170 0.219195
w 187 186 -170 0.538929
w 187 -186 170 0.183884
w 187 -186 -170 0.979803
w 188 171 0.700419
w 188 -171 0.857959
w 189 188 172 0
w 189 188 -172 1
w 189 -188 172 1
w 189 -188 -172 1
w 190 189 173 0.721922
w 190 189 -173 0.942879
w 190 -189 173 0.341051
w 190 -189 -173 0.104936
w 191 190 174 0
w 191 190 -174 1
w 191 -190 174 0
w 191 -190 -174 1
w 192 191 175 1
w 192 191 -175 1
w 192 -191 175 0
w 192 -191 -175 0
w 193 192 176 0
w 193 192 -176 1
w 193 -192 176 1
w 193 -192 -176 0
w 194 193 177 0
w 194 193 -177 1
w 194 -193 177 0
w 194 -193 -177 0
w 195 194 178 0
w 195 194 -178 1
w 195 -194 178 0
w 195 -194 -178 1
w 196 195 179 1
w 196 195 -179 0
w 196 -195 179 1
w 196 -195 -179 1
w 197 196 180 1
w 197 196 -180 1
w 197 -196 180 0
w 197 -196 -180 1
w 198 197 181 1
w 198 197 -181 0
w 198 -197 181 0
w 198 -197 -181 1
w 199 198 182 0
w 199 198 -182 1
w 199 -198 182 0
w 199 -198 -182 0
w 200 199 183 0.240668
w 200 199 -183 0.538743
w 200 -199 183 0.697596
w 200 -199 -183 0.377909
w 201 200 184 0
w 201 200 -184 0
w 201 -200 184 1
w 201 -200 -184 0
w 202 201 185 0.11107
w 202 201 -185 0.976009
w 202 -201 185 0.106577
w 202 -201 -185 0.885667
w 203 202 186 1
w 203 202 -186 1
w 203 -202 186 0
w 203 -202 -186 1
w 204 203 187 0
w 204 203 -187 0
w 204 -203 187 0
w 204 -203 -187 1
w 205 188 0
w 205 -188 1
w 206 205 189 1
w 206 205 -189 0
w 206 -205 189 0
w 206 -205 -189 0
w 207 206 190 0
w 207 206 -190 0
w 207 -206 190 0
w 207 -206 -190 1
w 208 207 191 0
w 208 207 -191 0
w 208 -207 191 1
w 208 -207 -191 0
w 209 208 192 0
w 209 208 -192 1
w 209 -208 192 1
w 209 -208 -192 1
w 210 209 193 0.967061
w 210 209 -193 0.195853
w 210 -209 193 0.548409
w 210 -209 -193 0.520253
w 211 210 194 0.550879
w 211 210 -194 0.335149
w 211 -210 194 0.123713
w 211 -210 -194 0.938024
w 212 211 195 0
w 212 211 -195 0
w 212 -211 195 1
w 212 -211 -195 0
w 213 212 196 0
w 213 212 -196 0
w 213 -212 196 1
w 213 -212 -196 0
w 214 213 197 0
w 214 213 -197 0
w 214 -213 197 1
w 214 -213 -197 1
w 215 214 198 1
w 215 214 -198 0
w 215 -214 198 1
w 215 -214 -198 1
w 216 215 199 1
w 216 215 -199 1
w 216 -215 199 1
w 216 -215 -199 0
w 217 216 200 1
w 217 216 -200 0
w 217 -216 200 1
w 217 -216 -200 0
w 218 217 201 0
w 218 217 -201 0
w 218 -217 201 0
w 218 -217 -201 1
w 219 218 202 1
w 219 218 -202 0
w 219 -218 202 1
w 219 -218 -202 0
w 220 219 203 0.989831
w 220 219 -203 0.882194
w 220 -219 203 0.120591
w 220 -219 -203 0.390685
w 221 220 204 0.524629
w 221 220 -204 0.172527
w 221 -220 204 0.768059
w 221 -220 -204 0.111274
w 222 205 0
w 222 -205 1
w 223 222 206 0
w 223 222 -206 1
w 223 -222 206 1
w 223 -222 -206 0
w 224 223 207 1
w 224 223 -207 1
w 224 -223 207 0
w 224 -223 -207 0
w 225 224 208 0
w 225 224 -208 0
w 225 -224 208 1
w 225 -224 -208 1
w 226 225 209 1
w 226 225 -209 1
w 226 -225 209 0
w 226 -225 -209 1
w 227 226 210 1
w 227 226 -210 0
w 227 -226 210 0
w 227 -226 -210 1
w 228 227 211 0.0270765
w 228 227 -211 0.601805
w 228 -227 211 0.930288
w 228 -227 -211 0.2481
w 229 228 212 1
w 229 228 -212 0
w 229 -228 212 1
w 229 -228 -212 0
w 230 229 213 1
w 230 229 -213 1
w 230 -229 213 0
w 230 -229 -213 1
w 231 230 214 1
w 231 230 -214 1
w 231 -230 214 0
w 231 -230 -214 0
w 232 231 215 0
w 232 231 -215 1
w 232 -231 215 0
w 232 -231 -215 0
w 233 232 216 0
w 233 232 -216 1
w 233 -232 216 1
w 233 -232 -216 0
w 234 233 217 1
w 234 233 -217 1
w 234 -233 217 0
w 234 -233 -217 0
w 235 234 218 0
w 235 234 -218 0
w 235 -234 218 0
w 235 -234 -218 1
w 236 235 219 1
w 236 235 -219 0
w 236 -235 219 0
w 236 -235 -219 1
w 237 236 220 0
w 237 236 -220 0
w 237 -236 220 1
w 237 -236 -220 0
w 238 237 221 1
w 238 237 -221 0
w 238 -237 221 0
w 238 -237 -221 0
w 239 222 0
w 239 -222 1
w 240 239 223 1
w 240 239 -223 0
w 240 -239 223 0
w 240 -239 -223 0
w 241 240 224 0
w 241 240 -224 1
w 241 -240 224 0
w 241 -240 -224 1
w 242 241 225 0
w 242 241 -225 0
w 242 -241 225 1
w 242 -241 -225 1
w 243 242 226 0.885498
w 243 242 -226 0.635448
w 243 -242 226 0.0623409
w 243 -242 -226 0.418499
w 244 243 227 0.154916
w 244 243 -227 0.997088
w 244 -243 227 0.0332003
w 244 -243 -227 0.734143
w 245 244 228 0
w 245 244 -228 1
w 245 -244 228 1
w 245 -244 -228 0
w 246 245 229 0
w 246 245 -229 1
w 246 -245 229 0
w 246 -245 -229 0
w 247 246 230 1
w 247 246 -230 1
w 247 -246 230 0
w 247 -246 -230 1
w 248 247 231 1
w 248 247 -231 0
w 248 -247 231 0
w 248 -247 -231 1
w 249 248 232 1
w 249 248 -232 0
w 249 -248 232 0
w 249 -248 -232 0
w 250 249 233 1
w 250 249 -233 1
w 250 -249 233 0
w 250 -249 -233 1
w 251 250 234 0
w 251 250 -234 1
w 251 -250 234 0
w 251 -250 -234 1
w 252 251 235 0
w 252 251 -235 0
w 252 -251 235 1
w 252 -251 -235 0
w 253 252 236 1
w 253 252 -236 1
w 253 -252 236 0
w 253 -252 -236 1
w 254 253 237 0
w 254 253 -237 1
w 254 -253 237 0
w 254 -253 -237 1
w 255 254 238 1
w 255 254 -238 1
w 255 -254 238 0
w 255 -254 -238 1
w 256 239 1
w 256 -239 0
w 257 256 240 1
w 257 256 -240 0
w 257 -256 240 0
w 257 -256 -240 0
w 258 257 241 0
w 258 257 -241 1
w 258 -257 241 1
w 258 -257 -241 0
w 259 258 242 0
w 259 258 -242 0
w 259 -258 242 1
w 259 -258 -242 0
w 260 259 243 0
w 260 259 -243 1
w 260 -259 243 1
w 260 -259 -243 0
w 261 260 244 1
w 261 260 -244 1
w 261 -260 244 0
w 261 -260 -244 0
w 262 261 245 0.787084
w 262 261 -245 0.135583
w 262 -261 245 0.0569665
w 262 -261 -245 0.0914073
w 263 262 246 0
w 263 262 -246 1
w 263 -262 246 1
w 263 -262 -246 0
w 264 263 247 0.729982
w 264 263 -247 0.488213
w 264 -263 247 0.671169
w 264 -263 -247 0.27299
w 265 264 248 0
w 265 264 -248 0
w 265 -264 248 1
w 265 -264 -248 0
w 266 265 249 0.280784
w 266 265 -249 0.334591
w 266 -265 249 0.0499182
w 266 -265 -249 0.587293
w 267 266 250 0.183204
w 267 266 -250 0.275978
w 267 -266 250 0.283914
w 267 -266 -250 0.966778
w 268 267 251 0.2388
w 268 267 -251 0.753861
w 268 -267 251 0.0224908
w 268 -267 -251 0.295767
w 269 268 252 0.440054
w 269 268 -252 0.892974
w 269 -268 252 0.575013
w 269 -268 -252 0.631065
w 270 269 253 1
w 270 269 -253 0
w 270 -269 253 0
w 270 -269 -253 0
w 271 270 254 1
w 271 270 -254 0
w 271 -270 254 1
w 271 -270 -254 0
w 272 271 255 1
w 272 271 -255 0
w 272 -271 255 0
w 272 -271 -255 1
w 273 256 1
w 273 -256 0
w 274 273 257 0
w 274 273 -257 0
w 274 -273 257 0
w 274 -273 -257 1
w 275 274 258 1
w 275 274 -258 0
w 275 -274 258 1
w 275 -274 -258 1
w 276 275 259 0.288711
w 276 275 -259 0.159334
w 276 -275 259 0.600589
w 276 -275 -259 0.402778
w 277 276 260 0
w 277 276 -260 0
w 277 -276 260 1
w 277 -276 -260 0
w 278 277 261 0.00382193
w 278 277 -261 0.531816
w 278 -277 261 0.299428
w 278 -277 -261 0.256453
w 279 278 262 1
w 279 278 -262 0
w 279 -278 262 0
w 279 -278 -262 1
w 280 279 263 0
w 280 279 -263 0
w 280 -279 263 0
w 280 -279 -263 1
w 281 280 264 1
w 281 280 -264 0
w 281 -280 264 0
w 281 -280 -264 0
w 282 281 265 0
w 282 281 -265 1
w 282 -281 265 1
w 282 -281 -265 0
w 283 282 266 0
w 283 282 -266 0
w 283 -282 266 1
w 283 -282 -266 1
w 284 283 267 0
w 284 283 -267 0
w 284 -283 267 0
w 284 -283 -267 1
w 285 284 268 1
w 285 284 -268 1
w 285 -284 268 0
w 285 -284 -268 1
w 286 285 269 0.356231
w 286 285 -269 0.0741377
w 286 -285 269 0.0872365
w 286 -285 -269 0.512152
w 287 286 270 1
w 287 286 -270 1
w 287 -286 270 0
w 287 -286 -270 1
w 288 287 271 0.684718
w 288 287 -271 0.313638
w 288 -287 271 0.525047
w 288 -287 -271 0.311672
w 289 288 272 0.873606
w 289 288 -272 0.900262
w 289 -288 272 0.257292
w 289 -288 -272 0.153861